119 48 011 1
1
344 113 1
296 114 1
254 115 1
212 116 1
295 117 1
253 118 1
247 119 1
295 108 1
279 109 1
303 110 1
288 111 1
330 112 1
233 113 1
366 114 1
296 115 1
292 116 1
304 117 1
197 118 1
243 119 1
208 108 1
243 109 1
280 110 1
234 111 1
249 112 1
310 113 1
217 114 1
243 115 1
275 116 1
310 117 1
298 118 1
293 119 1
365 108 1
329 109 1
322 110 1
259 111 1
209 112 1
252 113 1
225 114 1
262 115 1
191 116 1
264 117 1
282 118 1
287 119 1
256 108 1
411 109 1
286 110 1
310 111 1
256 112 1
1
1
1
1
1
1
1
1
1
1
1
1
1
1
1
1
1
1
1
1
1
1
1
1
1
1
1
1
1
1
1
1
1
1
1
1
1
1
1
1
1
1
1
1
1
1
1
1
1
1
1
1
1
1
1
1
1
1
1 9 294 21 207 33 364 45 255
1 10 278 22 242 34 328 46 410
1 11 302 23 279 35 321 47 285
1 12 287 24 233 36 258 48 309
1 13 329 25 248 37 208 49 255
1 2 343 14 232 26 309 38 251
1 3 295 15 365 27 216 39 224
1 4 253 16 295 28 242 40 261
1 5 211 17 291 29 274 41 190
1 6 294 18 303 30 309 42 263
1 7 252 19 196 31 297 43 281
1 8 246 20 242 32 292 44 286
